NAME : prob30b
TYPE : PDTSP
DIMENSION : 61
EDGE_WEIGHT_TYPE : EUC_2D
NODE_COORD_SECTION
1 774 682
2 440 34
3 617 258
4 154 68
5 517 542
6 283 885
7 967 533
8 950 421
9 877 815
10 635 172
11 835 944
12 321 2
13 253 399
14 792 498
15 512 445
16 838 738
17 7 460
18 414 858
19 265 487
20 438 80
21 727 755
22 932 298
23 946 668
24 911 128
25 838 300
26 372 543
27 634 783
28 377 126
29 541 486
30 546 371
31 52 536
32 778 788
33 778 735
34 259 144
35 753 205
36 310 758
37 934 231
38 426 266
39 85 636
40 553 549
41 309 97
42 795 258
43 767 782
44 23 455
45 939 626
46 226 788
47 523 876
48 765 262
49 226 803
50 367 262
51 549 5
52 623 63
53 985 436
54 897 517
55 801 523
56 817 122
57 915 648
58 425 761
59 988 247
60 489 526
61 223 359
PICKUP_AND_DELIVERY_SECTION
1 0 0 0 0 0 0
2 0 0 0 0 32 0
3 0 0 0 0 33 0
4 0 0 0 0 34 0
5 0 0 0 0 35 0
6 0 0 0 0 36 0
7 0 0 0 0 37 0
8 0 0 0 0 38 0
9 0 0 0 0 39 0
10 0 0 0 0 40 0
11 0 0 0 0 41 0
12 0 0 0 0 42 0
13 0 0 0 0 43 0
14 0 0 0 0 44 0
15 0 0 0 0 45 0
16 0 0 0 0 46 0
17 0 0 0 0 47 0
18 0 0 0 0 48 0
19 0 0 0 0 49 0
20 0 0 0 0 50 0
21 0 0 0 0 51 0
22 0 0 0 0 52 0
23 0 0 0 0 53 0
24 0 0 0 0 54 0
25 0 0 0 0 55 0
26 0 0 0 0 56 0
27 0 0 0 0 57 0
28 0 0 0 0 58 0
29 0 0 0 0 59 0
30 0 0 0 0 60 0
31 0 0 0 0 61 0
32 0 0 0 0 0 2
33 0 0 0 0 0 3
34 0 0 0 0 0 4
35 0 0 0 0 0 5
36 0 0 0 0 0 6
37 0 0 0 0 0 7
38 0 0 0 0 0 8
39 0 0 0 0 0 9
40 0 0 0 0 0 10
41 0 0 0 0 0 11
42 0 0 0 0 0 12
43 0 0 0 0 0 13
44 0 0 0 0 0 14
45 0 0 0 0 0 15
46 0 0 0 0 0 16
47 0 0 0 0 0 17
48 0 0 0 0 0 18
49 0 0 0 0 0 19
50 0 0 0 0 0 20
51 0 0 0 0 0 21
52 0 0 0 0 0 22
53 0 0 0 0 0 23
54 0 0 0 0 0 24
55 0 0 0 0 0 25
56 0 0 0 0 0 26
57 0 0 0 0 0 27
58 0 0 0 0 0 28
59 0 0 0 0 0 29
60 0 0 0 0 0 30
61 0 0 0 0 0 31
DEPOT_SECTION
1 
-1
EOF
